alldifferent-ls/benchmarks_sat/mols_3.cnf
p cnf 87 756
1 2 3 0
-1 -2 0
-1 -3 0
-2 -3 0
28 29 30 0
-28 -29 0
-28 -30 0
-29 -30 0
4 5 6 0
-4 -5 0
-4 -6 0
-5 -6 0
31 32 33 0
-31 -32 0
-31 -33 0
-32 -33 0
7 8 9 0
-7 -8 0
-7 -9 0
-8 -9 0
34 35 36 0
-34 -35 0
-34 -36 0
-35 -36 0
10 11 12 0
-10 -11 0
-10 -12 0
-11 -12 0
37 38 39 0
-37 -38 0
-37 -39 0
-38 -39 0
13 14 15 0
-13 -14 0
-13 -15 0
-14 -15 0
40 41 42 0
-40 -41 0
-40 -42 0
-41 -42 0
16 17 18 0
-16 -17 0
-16 -18 0
-17 -18 0
43 44 45 0
-43 -44 0
-43 -45 0
-44 -45 0
19 20 21 0
-19 -20 0
-19 -21 0
-20 -21 0
46 47 48 0
-46 -47 0
-46 -48 0
-47 -48 0
22 23 24 0
-22 -23 0
-22 -24 0
-23 -24 0
49 50 51 0
-49 -50 0
-49 -51 0
-50 -51 0
25 26 27 0
-25 -26 0
-25 -27 0
-26 -27 0
52 53 54 0
-52 -53 0
-52 -54 0
-53 -54 0
-1 -4 0
-1 -7 0
-4 -7 0
-1 -10 0
-1 -19 0
-10 -19 0
-10 -13 0
-10 -16 0
-13 -16 0
-1 -10 0
-1 -19 0
-10 -19 0
-19 -22 0
-19 -25 0
-22 -25 0
-1 -10 0
-1 -19 0
-10 -19 0
-2 -5 0
-2 -8 0
-5 -8 0
-5 -14 0
-5 -23 0
-14 -23 0
-11 -14 0
-11 -17 0
-14 -17 0
-5 -14 0
-5 -23 0
-14 -23 0
-20 -23 0
-20 -26 0
-23 -26 0
-5 -14 0
-5 -23 0
-14 -23 0
-3 -6 0
-3 -9 0
-6 -9 0
-9 -18 0
-9 -27 0
-18 -27 0
-12 -15 0
-12 -18 0
-15 -18 0
-9 -18 0
-9 -27 0
-18 -27 0
-21 -24 0
-21 -27 0
-24 -27 0
-9 -18 0
-9 -27 0
-18 -27 0
-28 -31 0
-28 -34 0
-31 -34 0
-28 -37 0
-28 -46 0
-37 -46 0
-37 -40 0
-37 -43 0
-40 -43 0
-28 -37 0
-28 -46 0
-37 -46 0
-46 -49 0
-46 -52 0
-49 -52 0
-28 -37 0
-28 -46 0
-37 -46 0
-29 -32 0
-29 -35 0
-32 -35 0
-32 -41 0
-32 -50 0
-41 -50 0
-38 -41 0
-38 -44 0
-41 -44 0
-32 -41 0
-32 -50 0
-41 -50 0
-47 -50 0
-47 -53 0
-50 -53 0
-32 -41 0
-32 -50 0
-41 -50 0
-30 -33 0
-30 -36 0
-33 -36 0
-36 -45 0
-36 -54 0
-45 -54 0
-39 -42 0
-39 -45 0
-42 -45 0
-36 -45 0
-36 -54 0
-45 -54 0
-48 -51 0
-48 -54 0
-51 -54 0
-36 -45 0
-36 -54 0
-45 -54 0
-55 1 0
-55 28 0
55 -1 -28 0
-56 1 0
-56 29 0
56 -1 -29 0
-57 1 0
-57 30 0
57 -1 -30 0
-58 2 0
-58 28 0
58 -2 -28 0
-59 2 0
-59 29 0
59 -2 -29 0
-60 2 0
-60 30 0
60 -2 -30 0
-61 3 0
-61 28 0
61 -3 -28 0
-62 3 0
-62 29 0
62 -3 -29 0
-63 3 0
-63 30 0
63 -3 -30 0
-58 4 0
-58 31 0
58 -4 -31 0
-59 4 0
-59 32 0
59 -4 -32 0
-60 4 0
-60 33 0
60 -4 -33 0
-61 5 0
-61 31 0
61 -5 -31 0
-62 5 0
-62 32 0
62 -5 -32 0
-63 5 0
-63 33 0
63 -5 -33 0
-64 6 0
-64 31 0
64 -6 -31 0
-65 6 0
-65 32 0
65 -6 -32 0
-66 6 0
-66 33 0
66 -6 -33 0
-61 7 0
-61 34 0
61 -7 -34 0
-62 7 0
-62 35 0
62 -7 -35 0
-63 7 0
-63 36 0
63 -7 -36 0
-64 8 0
-64 34 0
64 -8 -34 0
-65 8 0
-65 35 0
65 -8 -35 0
-66 8 0
-66 36 0
66 -8 -36 0
-67 9 0
-67 34 0
67 -9 -34 0
-68 9 0
-68 35 0
68 -9 -35 0
-69 9 0
-69 36 0
69 -9 -36 0
-64 10 0
-64 37 0
64 -10 -37 0
-65 10 0
-65 38 0
65 -10 -38 0
-66 10 0
-66 39 0
66 -10 -39 0
-67 11 0
-67 37 0
67 -11 -37 0
-68 11 0
-68 38 0
68 -11 -38 0
-69 11 0
-69 39 0
69 -11 -39 0
-70 12 0
-70 37 0
70 -12 -37 0
-71 12 0
-71 38 0
71 -12 -38 0
-72 12 0
-72 39 0
72 -12 -39 0
-67 13 0
-67 40 0
67 -13 -40 0
-68 13 0
-68 41 0
68 -13 -41 0
-69 13 0
-69 42 0
69 -13 -42 0
-70 14 0
-70 40 0
70 -14 -40 0
-71 14 0
-71 41 0
71 -14 -41 0
-72 14 0
-72 42 0
72 -14 -42 0
-73 15 0
-73 40 0
73 -15 -40 0
-74 15 0
-74 41 0
74 -15 -41 0
-75 15 0
-75 42 0
75 -15 -42 0
-70 16 0
-70 43 0
70 -16 -43 0
-71 16 0
-71 44 0
71 -16 -44 0
-72 16 0
-72 45 0
72 -16 -45 0
-73 17 0
-73 43 0
73 -17 -43 0
-74 17 0
-74 44 0
74 -17 -44 0
-75 17 0
-75 45 0
75 -17 -45 0
-76 18 0
-76 43 0
76 -18 -43 0
-77 18 0
-77 44 0
77 -18 -44 0
-78 18 0
-78 45 0
78 -18 -45 0
-73 19 0
-73 46 0
73 -19 -46 0
-74 19 0
-74 47 0
74 -19 -47 0
-75 19 0
-75 48 0
75 -19 -48 0
-76 20 0
-76 46 0
76 -20 -46 0
-77 20 0
-77 47 0
77 -20 -47 0
-78 20 0
-78 48 0
78 -20 -48 0
-79 21 0
-79 46 0
79 -21 -46 0
-80 21 0
-80 47 0
80 -21 -47 0
-81 21 0
-81 48 0
81 -21 -48 0
-76 22 0
-76 49 0
76 -22 -49 0
-77 22 0
-77 50 0
77 -22 -50 0
-78 22 0
-78 51 0
78 -22 -51 0
-79 23 0
-79 49 0
79 -23 -49 0
-80 23 0
-80 50 0
80 -23 -50 0
-81 23 0
-81 51 0
81 -23 -51 0
-82 24 0
-82 49 0
82 -24 -49 0
-83 24 0
-83 50 0
83 -24 -50 0
-84 24 0
-84 51 0
84 -24 -51 0
-79 25 0
-79 52 0
79 -25 -52 0
-80 25 0
-80 53 0
80 -25 -53 0
-81 25 0
-81 54 0
81 -25 -54 0
-82 26 0
-82 52 0
82 -26 -52 0
-83 26 0
-83 53 0
83 -26 -53 0
-84 26 0
-84 54 0
84 -26 -54 0
-85 27 0
-85 52 0
85 -27 -52 0
-86 27 0
-86 53 0
86 -27 -53 0
-87 27 0
-87 54 0
87 -27 -54 0
55 58 61 64 67 70 73 76 79 0
-55 -58 0
-55 -61 0
-55 -64 0
-55 -67 0
-55 -70 0
-55 -73 0
-55 -76 0
-55 -79 0
-58 -61 0
-58 -64 0
-58 -67 0
-58 -70 0
-58 -73 0
-58 -76 0
-58 -79 0
-61 -64 0
-61 -67 0
-61 -70 0
-61 -73 0
-61 -76 0
-61 -79 0
-64 -67 0
-64 -70 0
-64 -73 0
-64 -76 0
-64 -79 0
-67 -70 0
-67 -73 0
-67 -76 0
-67 -79 0
-70 -73 0
-70 -76 0
-70 -79 0
-73 -76 0
-73 -79 0
-76 -79 0
56 59 62 65 68 71 74 77 80 0
-56 -59 0
-56 -62 0
-56 -65 0
-56 -68 0
-56 -71 0
-56 -74 0
-56 -77 0
-56 -80 0
-59 -62 0
-59 -65 0
-59 -68 0
-59 -71 0
-59 -74 0
-59 -77 0
-59 -80 0
-62 -65 0
-62 -68 0
-62 -71 0
-62 -74 0
-62 -77 0
-62 -80 0
-65 -68 0
-65 -71 0
-65 -74 0
-65 -77 0
-65 -80 0
-68 -71 0
-68 -74 0
-68 -77 0
-68 -80 0
-71 -74 0
-71 -77 0
-71 -80 0
-74 -77 0
-74 -80 0
-77 -80 0
57 60 63 66 69 72 75 78 81 0
-57 -60 0
-57 -63 0
-57 -66 0
-57 -69 0
-57 -72 0
-57 -75 0
-57 -78 0
-57 -81 0
-60 -63 0
-60 -66 0
-60 -69 0
-60 -72 0
-60 -75 0
-60 -78 0
-60 -81 0
-63 -66 0
-63 -69 0
-63 -72 0
-63 -75 0
-63 -78 0
-63 -81 0
-66 -69 0
-66 -72 0
-66 -75 0
-66 -78 0
-66 -81 0
-69 -72 0
-69 -75 0
-69 -78 0
-69 -81 0
-72 -75 0
-72 -78 0
-72 -81 0
-75 -78 0
-75 -81 0
-78 -81 0
58 61 64 67 70 73 76 79 82 0
-58 -61 0
-58 -64 0
-58 -67 0
-58 -70 0
-58 -73 0
-58 -76 0
-58 -79 0
-58 -82 0
-61 -64 0
-61 -67 0
-61 -70 0
-61 -73 0
-61 -76 0
-61 -79 0
-61 -82 0
-64 -67 0
-64 -70 0
-64 -73 0
-64 -76 0
-64 -79 0
-64 -82 0
-67 -70 0
-67 -73 0
-67 -76 0
-67 -79 0
-67 -82 0
-70 -73 0
-70 -76 0
-70 -79 0
-70 -82 0
-73 -76 0
-73 -79 0
-73 -82 0
-76 -79 0
-76 -82 0
-79 -82 0
59 62 65 68 71 74 77 80 83 0
-59 -62 0
-59 -65 0
-59 -68 0
-59 -71 0
-59 -74 0
-59 -77 0
-59 -80 0
-59 -83 0
-62 -65 0
-62 -68 0
-62 -71 0
-62 -74 0
-62 -77 0
-62 -80 0
-62 -83 0
-65 -68 0
-65 -71 0
-65 -74 0
-65 -77 0
-65 -80 0
-65 -83 0
-68 -71 0
-68 -74 0
-68 -77 0
-68 -80 0
-68 -83 0
-71 -74 0
-71 -77 0
-71 -80 0
-71 -83 0
-74 -77 0
-74 -80 0
-74 -83 0
-77 -80 0
-77 -83 0
-80 -83 0
60 63 66 69 72 75 78 81 84 0
-60 -63 0
-60 -66 0
-60 -69 0
-60 -72 0
-60 -75 0
-60 -78 0
-60 -81 0
-60 -84 0
-63 -66 0
-63 -69 0
-63 -72 0
-63 -75 0
-63 -78 0
-63 -81 0
-63 -84 0
-66 -69 0
-66 -72 0
-66 -75 0
-66 -78 0
-66 -81 0
-66 -84 0
-69 -72 0
-69 -75 0
-69 -78 0
-69 -81 0
-69 -84 0
-72 -75 0
-72 -78 0
-72 -81 0
-72 -84 0
-75 -78 0
-75 -81 0
-75 -84 0
-78 -81 0
-78 -84 0
-81 -84 0
61 64 67 70 73 76 79 82 85 0
-61 -64 0
-61 -67 0
-61 -70 0
-61 -73 0
-61 -76 0
-61 -79 0
-61 -82 0
-61 -85 0
-64 -67 0
-64 -70 0
-64 -73 0
-64 -76 0
-64 -79 0
-64 -82 0
-64 -85 0
-67 -70 0
-67 -73 0
-67 -76 0
-67 -79 0
-67 -82 0
-67 -85 0
-70 -73 0
-70 -76 0
-70 -79 0
-70 -82 0
-70 -85 0
-73 -76 0
-73 -79 0
-73 -82 0
-73 -85 0
-76 -79 0
-76 -82 0
-76 -85 0
-79 -82 0
-79 -85 0
-82 -85 0
62 65 68 71 74 77 80 83 86 0
-62 -65 0
-62 -68 0
-62 -71 0
-62 -74 0
-62 -77 0
-62 -80 0
-62 -83 0
-62 -86 0
-65 -68 0
-65 -71 0
-65 -74 0
-65 -77 0
-65 -80 0
-65 -83 0
-65 -86 0
-68 -71 0
-68 -74 0
-68 -77 0
-68 -80 0
-68 -83 0
-68 -86 0
-71 -74 0
-71 -77 0
-71 -80 0
-71 -83 0
-71 -86 0
-74 -77 0
-74 -80 0
-74 -83 0
-74 -86 0
-77 -80 0
-77 -83 0
-77 -86 0
-80 -83 0
-80 -86 0
-83 -86 0
63 66 69 72 75 78 81 84 87 0
-63 -66 0
-63 -69 0
-63 -72 0
-63 -75 0
-63 -78 0
-63 -81 0
-63 -84 0
-63 -87 0
-66 -69 0
-66 -72 0
-66 -75 0
-66 -78 0
-66 -81 0
-66 -84 0
-66 -87 0
-69 -72 0
-69 -75 0
-69 -78 0
-69 -81 0
-69 -84 0
-69 -87 0
-72 -75 0
-72 -78 0
-72 -81 0
-72 -84 0
-72 -87 0
-75 -78 0
-75 -81 0
-75 -84 0
-75 -87 0
-78 -81 0
-78 -84 0
-78 -87 0
-81 -84 0
-81 -87 0
-84 -87 0
