experiment/Others/results/sat_results/mols_3.result
--------------------------------------------------
benchmarks_sat/mols_3.cnf : 15 ms.
